Using license file /home/benedond/gurobi.lic
Using gurobi.env file
Set parameter Threads to value 1
Academic license - for non-commercial use only
Changed value of parameter TimeLimit to 300.0
   Prev: inf  Min: 0.0  Max: inf  Default: inf
Gurobi Optimizer version 9.0.1 build v9.0.1rc0 (linux64)
Optimize a model with 1700 rows, 840 columns and 6478 nonzeros
Model fingerprint: 0x9040b375
Variable types: 20 continuous, 820 integer (800 binary)
Coefficient statistics:
  Matrix range     [2e-01, 3e+03]
  Objective range  [1e-03, 4e-01]
  Bounds range     [1e+00, 1e+00]
  RHS range        [1e+00, 3e+03]

---------------------------------------------------------------------------
Multi-objectives: starting optimization with 1 objectives ... 
---------------------------------------------------------------------------
---------------------------------------------------------------------------

Multi-objectives: optimize objective 1 (min avg power cons) ...
---------------------------------------------------------------------------

Optimize a model with 1700 rows, 840 columns and 6478 nonzeros
Variable types: 20 continuous, 820 integer (800 binary)
Coefficient statistics:
  Matrix range     [2e-01, 3e+03]
  Objective range  [1e-03, 4e-01]
  Bounds range     [1e+00, 1e+00]
  RHS range        [1e+00, 3e+03]
Presolve removed 1103 rows and 547 columns
Presolve time: 0.05s
Presolved: 597 rows, 293 columns, 2161 nonzeros
Variable types: 14 continuous, 279 integer (265 binary)

Root relaxation: objective 1.578747e+00, 163 iterations, 0.00 seconds

    Nodes    |    Current Node    |     Objective Bounds      |     Work
 Expl Unexpl |  Obj  Depth IntInf | Incumbent    BestBd   Gap | It/Node Time

     0     0    1.57875    0   43          -    1.57875      -     -    0s
H    0     0                       3.9817711    1.57875  60.4%     -    0s
     0     0    1.68801    0   59    3.98177    1.68801  57.6%     -    0s
H    0     0                       3.9056506    1.68801  56.8%     -    0s
H    0     0                       3.8443494    1.68801  56.1%     -    0s
     0     0    1.73415    0   49    3.84435    1.73415  54.9%     -    0s
     0     0    1.91507    0   66    3.84435    1.91507  50.2%     -    0s
     0     0    1.92412    0   53    3.84435    1.92412  49.9%     -    0s
     0     0    2.04288    0   57    3.84435    2.04288  46.9%     -    0s
     0     0    2.07728    0   58    3.84435    2.07728  46.0%     -    0s
     0     0    2.08868    0   63    3.84435    2.08868  45.7%     -    0s
     0     0    2.09349    0   64    3.84435    2.09349  45.5%     -    0s
     0     0    2.09397    0   62    3.84435    2.09397  45.5%     -    0s
     0     0    2.09486    0   68    3.84435    2.09486  45.5%     -    0s
     0     0    2.09497    0   68    3.84435    2.09497  45.5%     -    0s
     0     0    2.15883    0   75    3.84435    2.15883  43.8%     -    0s
     0     0    2.19325    0   71    3.84435    2.19325  42.9%     -    0s
     0     0    2.19725    0   77    3.84435    2.19725  42.8%     -    0s
     0     0    2.19802    0   76    3.84435    2.19802  42.8%     -    0s
     0     0    2.19897    0   78    3.84435    2.19897  42.8%     -    0s
     0     0    2.20083    0   77    3.84435    2.20083  42.8%     -    0s
     0     0    2.20083    0   77    3.84435    2.20083  42.8%     -    0s
     0     0    2.20888    0   74    3.84435    2.20888  42.5%     -    0s
H    0     0                       3.4296145    2.20888  35.6%     -    0s
H    0     0                       3.3910241    2.20888  34.9%     -    0s
     0     0    2.21814    0   89    3.39102    2.21814  34.6%     -    0s
     0     0    2.22233    0   77    3.39102    2.22233  34.5%     -    0s
     0     0    2.22260    0   95    3.39102    2.22260  34.5%     -    0s
     0     0    2.22333    0   77    3.39102    2.22333  34.4%     -    0s
     0     0    2.22334    0   77    3.39102    2.22334  34.4%     -    0s
     0     0    2.23076    0   82    3.39102    2.23076  34.2%     -    0s
     0     0    2.23230    0   67    3.39102    2.23230  34.2%     -    0s
     0     0    2.23284    0   78    3.39102    2.23284  34.2%     -    0s
     0     0    2.23302    0   78    3.39102    2.23302  34.1%     -    0s
     0     0    2.24074    0   57    3.39102    2.24074  33.9%     -    0s
     0     0    2.25077    0   72    3.39102    2.25077  33.6%     -    0s
     0     0    2.25511    0   86    3.39102    2.25511  33.5%     -    0s
     0     0    2.25598    0   82    3.39102    2.25598  33.5%     -    0s
     0     0    2.25645    0   83    3.39102    2.25645  33.5%     -    0s
     0     0    2.25656    0   85    3.39102    2.25656  33.5%     -    0s
     0     0    2.25875    0   65    3.39102    2.25875  33.4%     -    0s
     0     0    2.25903    0   67    3.39102    2.25903  33.4%     -    0s
     0     0    2.26208    0   67    3.39102    2.26208  33.3%     -    0s
     0     0    2.26231    0   72    3.39102    2.26231  33.3%     -    0s
     0     0    2.26518    0   63    3.39102    2.26518  33.2%     -    0s
     0     0    2.26569    0   76    3.39102    2.26569  33.2%     -    0s
     0     0    2.26586    0   78    3.39102    2.26586  33.2%     -    0s
     0     0    2.26823    0   62    3.39102    2.26823  33.1%     -    0s
H    0     0                       3.3641326    2.26823  32.6%     -    0s
     0     0    2.26947    0   65    3.36413    2.26947  32.5%     -    0s
     0     0    2.26992    0   68    3.36413    2.26992  32.5%     -    0s
     0     0    2.27007    0   73    3.36413    2.27007  32.5%     -    0s
     0     0    2.27107    0   67    3.36413    2.27107  32.5%     -    0s
     0     0    2.27107    0   64    3.36413    2.27107  32.5%     -    0s
H    0     0                       3.1658554    2.27120  28.3%     -    0s
     0     2    2.27120    0   64    3.16586    2.27120  28.3%     -    0s
  2707   343     cutoff   18         3.16586    2.86770  9.42%  30.9    5s
H 2958   251                       3.1117229    2.91363  6.37%  30.2    5s

Cutting planes:
  Cover: 10
  Implied bound: 15
  Projected implied bound: 20
  MIR: 54
  Flow cover: 47
  GUB cover: 2
  Mod-K: 2
  RLT: 6
  Relax-and-lift: 51

Explored 3568 nodes (103098 simplex iterations) in 6.14 seconds
Thread count was 1 (of 4 available processors)

Solution count 8: 3.11172 3.16586 3.36413 ... 3.98177

Optimal solution found (tolerance 1.00e-04)
Best objective 3.111722898358e+00, best bound 3.111722898358e+00, gap 0.0000%

---------------------------------------------------------------------------
Multi-objectives: solved in 6.14 seconds, solution count 8

